p cnf 39 103
a 8 22 0
e 1 2 3 4 5 6 7 9 10 11 12 13 14 15 16 17 18 19 20 21 23 24 25 26 27 28 29 30 31 32 33 34 35 36 37 38 39 0
-3 -1 0
-3 2 0
1 -2 3 0
5 4 0
5 -1 0
-4 1 -5 0
7 5 0
7 6 0
-5 -6 -7 0
8 7 0
8 -4 0
-7 4 -8 0
-11 9 0
-11 10 0
-9 -10 11 0
-12 8 0
-12 11 0
-8 -11 12 0
-13 3 0
-13 -12 0
-3 12 13 0
6 -7 -14 0
-6 7 -14 0
6 7 14 0
-6 -7 14 0
17 -16 0
17 -9 0
16 9 -17 0
18 15 0
18 -17 0
-15 17 -18 0
-19 -9 0
-19 10 0
9 -10 19 0
-20 8 0
-20 5 0
-8 -5 20 0
-21 4 0
-21 20 0
-4 -20 21 0
19 -21 -22 0
-19 21 -22 0
19 21 22 0
-19 -21 22 0
-24 -23 0
-24 5 0
23 -5 24 0
25 22 0
25 -24 0
-22 24 -25 0
26 17 0
26 1 0
-17 -1 -26 0
-26 20 -27 0
26 -20 -27 0
-26 -20 27 0
26 20 27 0
-28 -25 0
-28 27 0
25 -27 28 0
-29 18 0
-29 28 0
-18 -28 29 0
14 -29 -30 0
-14 29 -30 0
14 29 30 0
-14 -29 30 0
-31 13 0
-31 -30 0
-13 30 31 0
17 -23 -32 0
-17 23 -32 0
17 23 32 0
-17 -23 32 0
-34 16 0
-34 -33 0
-16 33 34 0
35 -34 0
35 -20 0
34 20 -35 0
33 -4 -36 0
-33 4 -36 0
33 4 36 0
-33 -4 36 0
37 35 0
37 36 0
-35 -36 -37 0
38 32 0
38 -37 0
-32 37 -38 0
-39 31 0
-39 -38 0
-31 38 39 0
10 16 33 -1 17 -31 0
33 16 -31 -25 -37 5 38 0
23 39 31 -16 28 -10 -1 0
-33 23 -29 -16 20 6 0
11 34 16 0
18 34 -15 0
3 10 0
36 28 24 12 -33 0
-12 17 -33 32 0
39 0
